\ File written by Highs .lp filereader
minimize
 obj: -1 x1 -1 x2 -1 x3 -6 x4 -1 x5 -1 x6 -4 x7 -8 x8 -6 x9 -6 x10 -4 x11 -8 x12 -1 x13 -1 x14 -2 x15 -4 x16 -1 x17 -1 x18 -4 x19 -4 x20 -2 x21 -2 x22 -1 x23 -8 x24 -4 x25 -12 x26 -6 x27 -8 x28 -4 x29 -2 x30 -1 x31 -2 x32 -4 x33 -4 x34 -2 x35 -8 x36 -8 x37 -16 x38 -8 x39 -8 x40 -12 x41 -24 x42 -24 x43 -12 x44 -8 x45 -8 x46 -16 x47 -8 x48 -8 x49 -4 x50 -2 x51 -1 x52 -1 x53 -2 x54 -1 x55 -1 x56 -4 x57 -8 x58 -8 x59 -4 x60 -6 x61 -6 x62 -12 x63 -6 x64 -6 x65 -4 x66 -8 x67 -8 x68 -4 x69 -2 x70 -1 x71 -1 x72 -4 x73 -6 x74 -4 x75 -1 x76 -2 x77 -2 x78 -8 x79 
-12 x80 -12 x81 -8 x82 -2 x83 -1 x84 -4 x85 -4 x86 -6 x87 -4 x88 -4 x89 -1 x90 -2 x91 -4 x92 -4 x93 -12 x94 -4 x95 -4 x96 -2 x97 -2 x98 -2 x99 -16 x100 -12 x101 -12 x102 -16 x103 -2 x104 -2 x105 -2 x106 -4 x107 -4 x108 -12 x109 -4 x110 -4 x111 -2 x112 -1 x113 -1 x114 -2 x115 -2 x116 -1 x117 -4 x118 -4 x119 -8 x120 -8 x121 -6 x122 -6 x123 -12 x124 -12 x125 -6 x126 -4 x127 -4 x128 -8 x129 -8 x130 -1 x131 -1 x132 -2 x133 -2 x134 -1 x135 -2 x136 -2 x137 -4 x138 -4 x139 -8 x140 -8 x141 -16 x142 -16 x143 -8 x144 -12 x145 -12 x146 -24 x147 -24 x148 -8 x149 
-8 x150 -16 x151 -16 x152 -8 x153 -2 x154 -2 x155 -4 x156 -4 x157 -1 x158 -1 x159 -2 x160 -2 x161 -1 x162 -4 x163 -4 x164 -8 x165 -8 x166 -6 x167 -6 x168 -12 x169 -12 x170 -6 x171 -4 x172 -4 x173 -8 x174 -8 x175 -1 x176 -1 x177 -2 x178 -2 x179 -1 x180 +0 x181 +0 x182 +0 x183 +0 x184 +0 x185 +0 x186 +0 x187 +0 x188 +0 x189 +0 x190 +0 x191 +0 x192 +0 x193 +0 x194 +0 x195 +0 x196 +0 x197 +0 x198 +0 x199 +0 x200 +0 x201 +0 x202 +0 x203 +0 x204 +0 x205 +0 x206 +0 x207 +0 x208 +0 x209 +0 x210 +0 x211 +0 x212 +0 x213 +0 x214 +0 x215 +0 x216 +0 x217 +0 x218 
+0 x219 +0 x220 +0 x221 +0 x222 +0 x223 +0 x224 +0 x225 +0 x226 +0 x227 +0 x228 +0 x229 +0 x230 +0 x231 +0 x232 +0 x233 +0 x234 +0 x235 +0 x236 +0 x237 +0 x238 +0 x239 +0 x240 +0 x241 +0 x242 +0 x243 +0 x244 +0 x245 +0 x246 +0 x247 +0 x248 +0 x249 +0 x250 +0 x251 +0 x252 +0 x253 +0 x254 +0 x255 +0 x256 +0 x257 +0 x258 +0 x259 +0 x260 +0 x261 +0 x262 +0 x263 +0 x264 +0 x265 +0 x266 +0 x267 +0 x268 +0 x269 +0 x270 
st
 con0: +1 x0 +1 x1 +4 x6 +2 x21 +2 x31 +1 x112 = +1
 con1: +2 x1 +2 x2 +8 x7 +2 x21 +4 x33 +2 x90 +2 x115 = +2
 con2: +4 x2 +12 x3 +8 x7 +4 x18 +4 x24 +8 x39 +4 x92 = +4
 con3: +12 x3 +4 x4 +8 x11 +4 x19 +4 x28 +8 x48 +4 x95 = +4
 con4: +2 x4 +2 x5 +4 x15 +2 x20 +8 x48 +2 x50 +2 x104 = +2
 con5: +1 x5 +2 x20 +4 x88 +1 x89 +2 x178 +1 x179 = +1
 con6: +4 x0 +4 x6 +12 x8 +8 x23 +8 x35 +4 x91 +4 x117 = +4
 con7: +4 x1 +4 x6 +8 x7 +12 x9 +8 x36 +4 x91 +4 x118 = +4
 con8: +12 x6 +6 x8 +6 x9 +12 x10 +12 x25 +12 x40 +6 x121 = +6
 con9: +12 x3 +24 x7 +12 x9 +24 x11 +12 x25 +24 x42 +12 x93 +12 x124 = +12
 con10: +12 x8 +4 x10 +4 x12 +8 x27 +8 x44 +4 x94 +4 x126 = +4
 con11: +12 x9 +4 x10 +8 x11 +4 x13 +8 x45 +4 x94 +4 x127 = +4
 con12: +4 x10 +1 x12 +1 x13 +2 x14 +2 x29 +1 x130 = +1
 con13: +2 x4 +8 x11 +2 x13 +4 x15 +2 x29 +2 x96 +2 x133 = +2
 con14: +2 x12 +2 x14 +2 x16 +8 x44 +4 x49 +2 x103 +2 x153 = +2
 con15: +2 x13 +2 x14 +4 x15 +2 x17 +8 x45 +2 x103 +2 x154 = +2
 con16: +2 x14 +1 x16 +1 x17 +4 x65 +2 x69 +1 x175 = +1
 con17: +2 x5 +4 x15 +2 x17 +8 x67 +2 x69 +2 x111 +2 x178 = +2
 con18: +1 x2 +4 x18 +1 x71 +2 x77 +2 x115 +1 x116 = +1
 con19: +6 x3 +12 x18 +12 x19 +6 x73 +12 x80 +12 x124 +6 x125 = +6
 con20: +1 x4 +4 x19 +2 x20 +1 x75 +2 x133 +1 x134 = +1
 con21: +2 x0 +2 x21 +2 x22 +8 x23 +4 x32 +2 x90 +2 x114 = +2
 con22: +1 x2 +2 x21 +1 x22 +4 x24 +2 x34 +1 x71 = +1
 con23: +8 x6 +8 x7 +8 x21 +8 x23 +8 x24 +24 x25 +16 x37 +8 x119 = +8
 con24: +4 x22 +8 x23 +4 x24 +12 x26 +8 x38 +4 x72 +4 x92 = +4
 con25: +12 x8 +24 x23 +12 x25 +12 x26 +24 x27 +24 x41 +12 x93 +12 x123 = +12
 con26: +6 x3 +12 x24 +12 x25 +6 x26 +12 x28 +12 x43 +6 x73 = +6
 con27: +8 x10 +8 x11 +24 x25 +8 x27 +8 x28 +8 x29 +16 x46 +8 x128 = +8
 con28: +12 x26 +8 x27 +4 x28 +4 x30 +8 x47 +4 x74 +4 x95 = +4
 con29: +2 x12 +8 x27 +2 x29 +2 x30 +4 x49 +2 x96 +2 x132 = +2
 con30: +1 x4 +4 x28 +2 x29 +1 x30 +2 x50 +1 x75 = +1
 con31: +2 x0 +2 x31 +4 x32 +8 x35 +2 x51 +2 x97 +2 x135 = +2
 con32: +2 x1 +2 x31 +4 x33 +8 x36 +2 x52 +2 x97 +2 x136 = +2
 con33: +4 x21 +4 x31 +4 x32 +4 x33 +4 x34 +16 x37 +4 x53 +4 x137 = +4
 con34: +2 x22 +4 x32 +2 x34 +8 x38 +2 x54 +2 x76 +2 x98 = +2
 con35: +2 x2 +4 x33 +2 x34 +8 x39 +2 x55 +2 x77 +2 x98 = +2
 con36: +8 x6 +8 x31 +8 x35 +8 x36 +16 x37 +24 x40 +8 x56 +8 x139 = +8
 con37: +16 x23 +16 x32 +16 x35 +16 x37 +16 x38 +48 x41 +16 x57 +16 x99 +16 x141 = +16
 con38: +16 x7 +16 x33 +16 x36 +16 x37 +16 x39 +48 x42 +16 x58 +16 x99 +16 x142 = +16
 con39: +8 x24 +8 x34 +16 x37 +8 x38 +8 x39 +24 x43 +8 x59 +8 x78 = +8
 con40: +12 x8 +24 x35 +12 x40 +24 x41 +24 x44 +12 x60 +12 x100 +12 x144 = +12
 con41: +12 x9 +24 x36 +12 x40 +24 x42 +24 x45 +12 x61 +12 x100 +12 x145 = +12
 con42: +24 x25 +48 x37 +24 x40 +24 x41 +24 x42 +24 x43 +48 x46 +24 x62 +24 x146 = +24
 con43: +12 x26 +24 x38 +24 x41 +12 x43 +24 x47 +12 x63 +12 x79 +12 x101 = +12
 con44: +12 x3 +24 x39 +24 x42 +12 x43 +24 x48 +12 x64 +12 x80 +12 x101 = +12
 con45: +8 x10 +8 x14 +24 x40 +8 x44 +8 x45 +16 x46 +8 x65 +8 x148 = +8
 con46: +16 x27 +48 x41 +16 x44 +16 x46 +16 x47 +16 x49 +16 x66 +16 x102 +16 x150 = +16
 con47: +16 x11 +16 x15 +48 x42 +16 x45 +16 x46 +16 x48 +16 x67 +16 x102 +16 x151 = +16
 con48: +8 x28 +24 x43 +16 x46 +8 x47 +8 x48 +8 x50 +8 x68 +8 x81 = +8
 con49: +4 x14 +4 x15 +4 x29 +16 x46 +4 x49 +4 x50 +4 x69 +4 x155 = +4
 con50: +2 x30 +8 x47 +4 x49 +2 x50 +2 x70 +2 x82 +2 x104 = +2
 con51: +2 x31 +1 x51 +1 x52 +2 x53 +4 x56 +1 x157 = +1
 con52: +4 x32 +2 x51 +2 x53 +2 x54 +8 x57 +2 x105 +2 x159 = +2
 con53: +4 x33 +2 x52 +2 x53 +2 x55 +8 x58 +2 x105 +2 x160 = +2
 con54: +2 x34 +2 x53 +1 x54 +1 x55 +4 x59 +1 x83 = +1
 con55: +8 x35 +4 x51 +4 x56 +8 x57 +12 x60 +4 x106 +4 x162 = +4
 con56: +8 x36 +4 x52 +4 x56 +8 x58 +12 x61 +4 x106 +4 x163 = +4
 con57: +16 x37 +8 x53 +8 x56 +8 x57 +8 x58 +8 x59 +24 x62 +8 x164 = +8
 con58: +8 x38 +4 x54 +8 x57 +4 x59 +12 x63 +4 x84 +4 x107 = +4
 con59: +8 x39 +4 x55 +8 x58 +4 x59 +12 x64 +4 x85 +4 x107 = +4
 con60: +12 x40 +12 x56 +6 x60 +6 x61 +12 x62 +12 x65 +6 x166 = +6
 con61: +24 x41 +24 x57 +12 x60 +12 x62 +12 x63 +24 x66 +12 x108 +12 x168 = +12
 con62: +24 x42 +24 x58 +12 x61 +12 x62 +12 x64 +24 x67 +12 x108 +12 x169 = +12
 con63: +12 x43 +12 x59 +12 x62 +6 x63 +6 x64 +12 x68 +6 x86 = +6
 con64: +4 x16 +8 x44 +12 x60 +4 x65 +8 x66 +4 x109 +4 x171 = +4
 con65: +4 x17 +8 x45 +12 x61 +4 x65 +8 x67 +4 x109 +4 x172 = +4
 con66: +16 x46 +24 x62 +8 x65 +8 x66 +8 x67 +8 x68 +8 x69 +8 x173 = +8
 con67: +8 x47 +12 x63 +8 x66 +4 x68 +4 x70 +4 x87 +4 x110 = +4
 con68: +4 x5 +8 x48 +12 x64 +8 x67 +4 x68 +4 x88 +4 x110 = +4
 con69: +2 x16 +4 x49 +8 x66 +2 x69 +2 x70 +2 x111 +2 x177 = +2
 con70: +1 x5 +2 x50 +4 x68 +2 x69 +1 x70 +1 x89 = +1
 con71: +1 x22 +1 x71 +4 x72 +2 x76 +2 x114 +1 x116 = +1
 con72: +4 x18 +4 x24 +4 x71 +4 x72 +12 x73 +8 x78 +8 x119 = +4
 con73: +6 x26 +12 x72 +6 x73 +12 x74 +12 x79 +12 x123 +6 x125 = +6
 con74: +4 x19 +4 x28 +12 x73 +4 x74 +4 x75 +8 x81 +8 x128 = +4
 con75: +1 x30 +4 x74 +1 x75 +2 x82 +2 x132 +1 x134 = +1
 con76: +2 x34 +2 x71 +2 x76 +2 x77 +8 x78 +2 x83 +4 x137 = +2
 con77: +8 x38 +8 x72 +8 x76 +8 x78 +24 x79 +8 x84 +16 x141 +8 x143 = +8
 con78: +8 x18 +8 x39 +8 x77 +8 x78 +24 x80 +8 x85 +16 x142 +8 x143 = +8
 con79: +12 x43 +12 x73 +24 x78 +12 x79 +12 x80 +24 x81 +12 x86 +24 x146 = +12
 con80: +8 x47 +8 x74 +24 x79 +8 x81 +8 x82 +8 x87 +16 x150 +8 x152 = +8
 con81: +8 x19 +8 x20 +8 x48 +24 x80 +8 x81 +8 x88 +16 x151 +8 x152 = +8
 con82: +2 x20 +2 x50 +2 x75 +8 x81 +2 x82 +2 x89 +4 x155 = +2
 con83: +1 x54 +2 x76 +1 x83 +4 x84 +2 x159 +1 x161 = +1
 con84: +1 x55 +2 x77 +1 x83 +4 x85 +2 x160 +1 x161 = +1
 con85: +4 x59 +8 x78 +4 x83 +4 x84 +4 x85 +12 x86 +8 x164 = +4
 con86: +6 x63 +12 x79 +12 x84 +6 x86 +12 x87 +12 x168 +6 x170 = +6
 con87: +6 x64 +12 x80 +12 x85 +6 x86 +12 x88 +12 x169 +6 x170 = +6
 con88: +4 x68 +8 x81 +12 x86 +4 x87 +4 x88 +4 x89 +8 x173 = +4
 con89: +1 x70 +2 x82 +4 x87 +1 x89 +2 x177 +1 x179 = +1
 con90: +1 x0 +1 x1 +2 x90 +4 x91 +2 x97 +1 x113 = +1
 con91: +1 x2 +1 x22 +2 x90 +4 x92 +2 x98 +1 x116 = +1
 con92: +8 x7 +8 x23 +8 x90 +8 x91 +8 x92 +24 x93 +16 x99 +8 x120 = +8
 con93: +6 x8 +6 x9 +12 x91 +12 x93 +12 x94 +12 x100 +6 x122 = +6
 con94: +6 x3 +6 x26 +12 x92 +12 x93 +12 x95 +12 x101 +6 x125 = +6
 con95: +8 x11 +8 x27 +24 x93 +8 x94 +8 x95 +8 x96 +16 x102 +8 x129 = +8
 con96: +1 x12 +1 x13 +4 x94 +2 x96 +2 x103 +1 x131 = +1
 con97: +1 x4 +1 x30 +4 x95 +2 x96 +2 x104 +1 x134 = +1
 con98: +4 x32 +4 x33 +4 x90 +4 x97 +4 x98 +16 x99 +4 x105 +4 x138 = +4
 con99: +8 x35 +8 x36 +8 x91 +8 x97 +16 x99 +24 x100 +8 x106 +8 x140 = +8
 con100: +8 x38 +8 x39 +8 x92 +8 x98 +16 x99 +24 x101 +8 x107 +8 x143 = +8
 con101: +24 x41 +24 x42 +24 x93 +48 x99 +24 x100 +24 x101 +48 x102 +24 x108 +24 x147 = +24
 con102: +8 x44 +8 x45 +8 x94 +24 x100 +16 x102 +8 x103 +8 x109 +8 x149 = +8
 con103: +8 x47 +8 x48 +8 x95 +24 x101 +16 x102 +8 x104 +8 x110 +8 x152 = +8
 con104: +4 x15 +4 x49 +4 x96 +16 x102 +4 x103 +4 x104 +4 x111 +4 x156 = +4
 con105: +1 x51 +1 x52 +2 x97 +2 x105 +4 x106 +1 x158 = +1
 con106: +1 x54 +1 x55 +2 x98 +2 x105 +4 x107 +1 x161 = +1
 con107: +8 x57 +8 x58 +16 x99 +8 x105 +8 x106 +8 x107 +24 x108 +8 x165 = +8
 con108: +6 x60 +6 x61 +12 x100 +12 x106 +12 x108 +12 x109 +6 x167 = +6
 con109: +6 x63 +6 x64 +12 x101 +12 x107 +12 x108 +12 x110 +6 x170 = +6
 con110: +8 x66 +8 x67 +16 x102 +24 x108 +8 x109 +8 x110 +8 x111 +8 x174 = +8
 con111: +1 x16 +1 x17 +2 x103 +4 x109 +2 x111 +1 x176 = +1
 con112: +1 x5 +1 x70 +2 x104 +4 x110 +2 x111 +1 x179 = +1
 con113: +1 x0 +1 x112 +1 x113 +2 x114 +4 x117 +2 x135 = +1
 con114: +1 x1 +1 x112 +1 x113 +2 x115 +4 x118 +2 x136 = +1
 con115: +2 x21 +2 x71 +2 x112 +2 x114 +2 x115 +8 x119 +4 x137 = +2
 con116: +2 x90 +2 x113 +2 x114 +2 x115 +2 x116 +8 x120 +4 x138 = +2
 con117: +4 x6 +4 x112 +4 x117 +4 x118 +8 x119 +12 x121 +8 x139 = +4
 con118: +4 x91 +4 x113 +4 x117 +4 x118 +8 x120 +12 x122 +8 x140 = +4
 con119: +8 x23 +8 x72 +8 x114 +8 x117 +8 x119 +8 x120 +24 x123 +16 x141 = +8
 con120: +8 x7 +8 x18 +8 x115 +8 x118 +8 x119 +8 x120 +24 x124 +16 x142 = +8
 con121: +4 x18 +4 x72 +4 x92 +4 x116 +8 x120 +12 x125 +8 x143 = +4
 con122: +6 x8 +12 x117 +6 x121 +6 x122 +12 x123 +12 x126 +12 x144 = +6
 con123: +6 x9 +12 x118 +6 x121 +6 x122 +12 x124 +12 x127 +12 x145 = +6
 con124: +12 x25 +12 x73 +24 x119 +12 x121 +12 x123 +12 x124 +24 x128 +24 x146 = +12
 con125: +12 x93 +24 x120 +12 x122 +12 x123 +12 x124 +12 x125 +24 x129 +24 x147 = +12
 con126: +4 x10 +12 x121 +4 x126 +4 x127 +8 x128 +4 x130 +8 x148 = +4
 con127: +4 x94 +12 x122 +4 x126 +4 x127 +8 x129 +4 x131 +8 x149 = +4
 con128: +8 x27 +8 x74 +24 x123 +8 x126 +8 x128 +8 x129 +8 x132 +16 x150 = +8
 con129: +8 x11 +8 x19 +24 x124 +8 x127 +8 x128 +8 x129 +8 x133 +16 x151 = +8
 con130: +4 x19 +4 x74 +4 x95 +12 x125 +8 x129 +4 x134 +8 x152 = +4
 con131: +1 x12 +4 x126 +1 x130 +1 x131 +2 x132 +2 x153 = +1
 con132: +1 x13 +4 x127 +1 x130 +1 x131 +2 x133 +2 x154 = +1
 con133: +2 x29 +2 x75 +8 x128 +2 x130 +2 x132 +2 x133 +4 x155 = +2
 con134: +2 x96 +8 x129 +2 x131 +2 x132 +2 x133 +2 x134 +4 x156 = +2
 con135: +2 x31 +2 x112 +2 x135 +2 x136 +4 x137 +8 x139 +2 x157 = +2
 con136: +2 x97 +2 x113 +2 x135 +2 x136 +4 x138 +8 x140 +2 x158 = +2
 con137: +4 x32 +4 x76 +4 x114 +4 x135 +4 x137 +4 x138 +16 x141 +4 x159 = +4
 con138: +4 x33 +4 x77 +4 x115 +4 x136 +4 x137 +4 x138 +16 x142 +4 x160 = +4
 con139: +2 x76 +2 x77 +2 x98 +2 x116 +4 x138 +8 x143 +2 x161 = +2
 con140: +8 x35 +8 x117 +8 x135 +8 x139 +8 x140 +16 x141 +24 x144 +8 x162 = +8
 con141: +8 x36 +8 x118 +8 x136 +8 x139 +8 x140 +16 x142 +24 x145 +8 x163 = +8
 con142: +16 x37 +16 x78 +16 x119 +16 x137 +16 x139 +16 x141 +16 x142 +48 x146 +16 x164 = +16
 con143: +16 x99 +16 x120 +16 x138 +16 x140 +16 x141 +16 x142 +16 x143 +48 x147 +16 x165 = +16
 con144: +12 x40 +12 x121 +24 x139 +12 x144 +12 x145 +24 x146 +24 x148 +12 x166 = +12
 con145: +12 x100 +12 x122 +24 x140 +12 x144 +12 x145 +24 x147 +24 x149 +12 x167 = +12
 con146: +24 x41 +24 x79 +24 x123 +48 x141 +24 x144 +24 x146 +24 x147 +48 x150 +24 x168 = +24
 con147: +24 x42 +24 x80 +24 x124 +48 x142 +24 x145 +24 x146 +24 x147 +48 x151 +24 x169 = +24
 con148: +12 x79 +12 x80 +12 x101 +12 x125 +24 x143 +24 x147 +24 x152 +12 x170 = +12
 con149: +8 x44 +8 x126 +24 x144 +8 x148 +8 x149 +16 x150 +8 x153 +8 x171 = +8
 con150: +8 x45 +8 x127 +24 x145 +8 x148 +8 x149 +16 x151 +8 x154 +8 x172 = +8
 con151: +16 x46 +16 x81 +16 x128 +48 x146 +16 x148 +16 x150 +16 x151 +16 x155 +16 x173 = +16
 con152: +16 x102 +16 x129 +48 x147 +16 x149 +16 x150 +16 x151 +16 x152 +16 x156 +16 x174 = +16
 con153: +2 x14 +2 x130 +8 x148 +2 x153 +2 x154 +4 x155 +2 x175 = +2
 con154: +2 x103 +2 x131 +8 x149 +2 x153 +2 x154 +4 x156 +2 x176 = +2
 con155: +4 x49 +4 x82 +4 x132 +16 x150 +4 x153 +4 x155 +4 x156 +4 x177 = +4
 con156: +4 x15 +4 x20 +4 x133 +16 x151 +4 x154 +4 x155 +4 x156 +4 x178 = +4
 con157: +2 x20 +2 x82 +2 x104 +2 x134 +8 x152 +4 x156 +2 x179 = +2
 con158: +1 x51 +2 x135 +1 x157 +1 x158 +2 x159 +4 x162 = +1
 con159: +1 x52 +2 x136 +1 x157 +1 x158 +2 x160 +4 x163 = +1
 con160: +2 x53 +2 x83 +4 x137 +2 x157 +2 x159 +2 x160 +8 x164 = +2
 con161: +2 x105 +4 x138 +2 x158 +2 x159 +2 x160 +2 x161 +8 x165 = +2
 con162: +4 x56 +8 x139 +4 x157 +4 x162 +4 x163 +8 x164 +12 x166 = +4
 con163: +4 x106 +8 x140 +4 x158 +4 x162 +4 x163 +8 x165 +12 x167 = +4
 con164: +8 x57 +8 x84 +16 x141 +8 x159 +8 x162 +8 x164 +8 x165 +24 x168 = +8
 con165: +8 x58 +8 x85 +16 x142 +8 x160 +8 x163 +8 x164 +8 x165 +24 x169 = +8
 con166: +4 x84 +4 x85 +4 x107 +8 x143 +4 x161 +8 x165 +12 x170 = +4
 con167: +6 x60 +12 x144 +12 x162 +6 x166 +6 x167 +12 x168 +12 x171 = +6
 con168: +6 x61 +12 x145 +12 x163 +6 x166 +6 x167 +12 x169 +12 x172 = +6
 con169: +12 x62 +12 x86 +24 x146 +24 x164 +12 x166 +12 x168 +12 x169 +24 x173 = +12
 con170: +12 x108 +24 x147 +24 x165 +12 x167 +12 x168 +12 x169 +12 x170 +24 x174 = +12
 con171: +4 x65 +8 x148 +12 x166 +4 x171 +4 x172 +8 x173 +4 x175 = +4
 con172: +4 x109 +8 x149 +12 x167 +4 x171 +4 x172 +8 x174 +4 x176 = +4
 con173: +8 x66 +8 x87 +16 x150 +24 x168 +8 x171 +8 x173 +8 x174 +8 x177 = +8
 con174: +8 x67 +8 x88 +16 x151 +24 x169 +8 x172 +8 x173 +8 x174 +8 x178 = +8
 con175: +4 x87 +4 x88 +4 x110 +8 x152 +12 x170 +8 x174 +4 x179 = +4
 con176: +1 x16 +2 x153 +4 x171 +1 x175 +1 x176 +2 x177 = +1
 con177: +1 x17 +2 x154 +4 x172 +1 x175 +1 x176 +2 x178 = +1
 con178: +2 x69 +2 x89 +4 x155 +8 x173 +2 x175 +2 x177 +2 x178 = +2
 con179: +2 x111 +4 x156 +8 x174 +2 x176 +2 x177 +2 x178 +2 x179 = +2
 con180: +1 x2 -1 x115 -1 x180 = +0
 con181: +1 x3 -1 x124 -1 x181 = +0
 con182: +1 x4 -1 x133 -1 x182 = +0
 con183: +1 x5 -1 x178 -1 x183 = +0
 con184: +1 x6 -1 x91 -1 x184 = +0
 con185: +1 x7 -1 x118 -1 x185 = +0
 con186: +1 x10 -1 x94 -1 x186 = +0
 con187: +1 x11 -1 x127 -1 x187 = +0
 con188: +1 x14 -1 x103 -1 x188 = +0
 con189: +1 x15 -1 x154 -1 x189 = +0
 con190: +1 x21 -1 x90 -1 x190 = +0
 con191: +1 x21 -1 x112 -1 x191 = +0
 con192: +1 x21 -1 x113 -1 x192 = +0
 con193: +1 x22 -1 x114 -1 x193 = +0
 con194: +1 x23 -1 x117 -1 x194 = +0
 con195: +1 x24 -1 x92 -1 x195 = +0
 con196: +1 x24 -1 x119 -1 x196 = +0
 con197: +1 x24 -1 x120 -1 x197 = +0
 con198: +1 x25 -1 x93 -1 x198 = +0
 con199: +1 x25 -1 x121 -1 x199 = +0
 con200: +1 x25 -1 x122 -1 x200 = +0
 con201: +1 x26 -1 x123 -1 x201 = +0
 con202: +1 x27 -1 x126 -1 x202 = +0
 con203: +1 x28 -1 x95 -1 x203 = +0
 con204: +1 x28 -1 x128 -1 x204 = +0
 con205: +1 x28 -1 x129 -1 x205 = +0
 con206: +1 x29 -1 x96 -1 x206 = +0
 con207: +1 x29 -1 x130 -1 x207 = +0
 con208: +1 x29 -1 x131 -1 x208 = +0
 con209: +1 x30 -1 x132 -1 x209 = +0
 con210: +1 x31 -1 x97 -1 x210 = +0
 con211: +1 x32 -1 x135 -1 x211 = +0
 con212: +1 x33 -1 x136 -1 x212 = +0
 con213: +1 x34 -1 x98 -1 x213 = +0
 con214: +1 x34 -1 x137 -1 x214 = +0
 con215: +1 x34 -1 x138 -1 x215 = +0
 con216: +1 x37 -1 x99 -1 x216 = +0
 con217: +1 x37 -1 x139 -1 x217 = +0
 con218: +1 x37 -1 x140 -1 x218 = +0
 con219: +1 x38 -1 x141 -1 x219 = +0
 con220: +1 x39 -1 x142 -1 x220 = +0
 con221: +1 x40 -1 x100 -1 x221 = +0
 con222: +1 x41 -1 x144 -1 x222 = +0
 con223: +1 x42 -1 x145 -1 x223 = +0
 con224: +1 x43 -1 x101 -1 x224 = +0
 con225: +1 x43 -1 x146 -1 x225 = +0
 con226: +1 x43 -1 x147 -1 x226 = +0
 con227: +1 x46 -1 x102 -1 x227 = +0
 con228: +1 x46 -1 x148 -1 x228 = +0
 con229: +1 x46 -1 x149 -1 x229 = +0
 con230: +1 x47 -1 x150 -1 x230 = +0
 con231: +1 x48 -1 x151 -1 x231 = +0
 con232: +1 x49 -1 x153 -1 x232 = +0
 con233: +1 x50 -1 x104 -1 x233 = +0
 con234: +1 x50 -1 x155 -1 x234 = +0
 con235: +1 x50 -1 x156 -1 x235 = +0
 con236: +1 x53 -1 x105 -1 x236 = +0
 con237: +1 x53 -1 x157 -1 x237 = +0
 con238: +1 x53 -1 x158 -1 x238 = +0
 con239: +1 x54 -1 x159 -1 x239 = +0
 con240: +1 x55 -1 x160 -1 x240 = +0
 con241: +1 x56 -1 x106 -1 x241 = +0
 con242: +1 x57 -1 x162 -1 x242 = +0
 con243: +1 x58 -1 x163 -1 x243 = +0
 con244: +1 x59 -1 x107 -1 x244 = +0
 con245: +1 x59 -1 x164 -1 x245 = +0
 con246: +1 x59 -1 x165 -1 x246 = +0
 con247: +1 x62 -1 x108 -1 x247 = +0
 con248: +1 x62 -1 x166 -1 x248 = +0
 con249: +1 x62 -1 x167 -1 x249 = +0
 con250: +1 x63 -1 x168 -1 x250 = +0
 con251: +1 x64 -1 x169 -1 x251 = +0
 con252: +1 x65 -1 x109 -1 x252 = +0
 con253: +1 x66 -1 x171 -1 x253 = +0
 con254: +1 x67 -1 x172 -1 x254 = +0
 con255: +1 x68 -1 x110 -1 x255 = +0
 con256: +1 x68 -1 x173 -1 x256 = +0
 con257: +1 x68 -1 x174 -1 x257 = +0
 con258: +1 x69 -1 x111 -1 x258 = +0
 con259: +1 x69 -1 x175 -1 x259 = +0
 con260: +1 x69 -1 x176 -1 x260 = +0
 con261: +1 x70 -1 x177 -1 x261 = +0
 con262: +1 x71 -1 x116 -1 x262 = +0
 con263: +1 x73 -1 x125 -1 x263 = +0
 con264: +1 x75 -1 x134 -1 x264 = +0
 con265: +1 x78 -1 x143 -1 x265 = +0
 con266: +1 x81 -1 x152 -1 x266 = +0
 con267: +1 x83 -1 x161 -1 x267 = +0
 con268: +1 x86 -1 x170 -1 x268 = +0
 con269: +1 x89 -1 x179 -1 x269 = +0
bounds
 +0 <= x0 <= +1
 +0 <= x1 <= +1
 +0 <= x2 <= +1
 +0 <= x3 <= +1
 +0 <= x4 <= +1
 +0 <= x5 <= +1
 +0 <= x6 <= +1
 +0 <= x7 <= +1
 +0 <= x8 <= +1
 +0 <= x9 <= +1
 +0 <= x10 <= +1
 +0 <= x11 <= +1
 +0 <= x12 <= +1
 +0 <= x13 <= +1
 +0 <= x14 <= +1
 +0 <= x15 <= +1
 +0 <= x16 <= +1
 +0 <= x17 <= +1
 +0 <= x18 <= +1
 +0 <= x19 <= +1
 +0 <= x20 <= +1
 +0 <= x21 <= +1
 +0 <= x22 <= +1
 +0 <= x23 <= +1
 +0 <= x24 <= +1
 +0 <= x25 <= +1
 +0 <= x26 <= +1
 +0 <= x27 <= +1
 +0 <= x28 <= +1
 +0 <= x29 <= +1
 +0 <= x30 <= +1
 +0 <= x31 <= +1
 +0 <= x32 <= +1
 +0 <= x33 <= +1
 +0 <= x34 <= +1
 +0 <= x35 <= +1
 +0 <= x36 <= +1
 +0 <= x37 <= +1
 +0 <= x38 <= +1
 +0 <= x39 <= +1
 +0 <= x40 <= +1
 +0 <= x41 <= +1
 +0 <= x42 <= +1
 +0 <= x43 <= +1
 +0 <= x44 <= +1
 +0 <= x45 <= +1
 +0 <= x46 <= +1
 +0 <= x47 <= +1
 +0 <= x48 <= +1
 +0 <= x49 <= +1
 +0 <= x50 <= +1
 +0 <= x51 <= +1
 +0 <= x52 <= +1
 +0 <= x53 <= +1
 +0 <= x54 <= +1
 +0 <= x55 <= +1
 +0 <= x56 <= +1
 +0 <= x57 <= +1
 +0 <= x58 <= +1
 +0 <= x59 <= +1
 +0 <= x60 <= +1
 +0 <= x61 <= +1
 +0 <= x62 <= +1
 +0 <= x63 <= +1
 +0 <= x64 <= +1
 +0 <= x65 <= +1
 +0 <= x66 <= +1
 +0 <= x67 <= +1
 +0 <= x68 <= +1
 +0 <= x69 <= +1
 +0 <= x70 <= +1
 +0 <= x71 <= +1
 +0 <= x72 <= +1
 +0 <= x73 <= +1
 +0 <= x74 <= +1
 +0 <= x75 <= +1
 +0 <= x76 <= +1
 +0 <= x77 <= +1
 +0 <= x78 <= +1
 +0 <= x79 <= +1
 +0 <= x80 <= +1
 +0 <= x81 <= +1
 +0 <= x82 <= +1
 +0 <= x83 <= +1
 +0 <= x84 <= +1
 +0 <= x85 <= +1
 +0 <= x86 <= +1
 +0 <= x87 <= +1
 +0 <= x88 <= +1
 +0 <= x89 <= +1
 +0 <= x90 <= +1
 +0 <= x91 <= +1
 +0 <= x92 <= +1
 +0 <= x93 <= +1
 +0 <= x94 <= +1
 +0 <= x95 <= +1
 +0 <= x96 <= +1
 +0 <= x97 <= +1
 +0 <= x98 <= +1
 +0 <= x99 <= +1
 +0 <= x100 <= +1
 +0 <= x101 <= +1
 +0 <= x102 <= +1
 +0 <= x103 <= +1
 +0 <= x104 <= +1
 +0 <= x105 <= +1
 +0 <= x106 <= +1
 +0 <= x107 <= +1
 +0 <= x108 <= +1
 +0 <= x109 <= +1
 +0 <= x110 <= +1
 +0 <= x111 <= +1
 +0 <= x112 <= +1
 +0 <= x113 <= +1
 +0 <= x114 <= +1
 +0 <= x115 <= +1
 +0 <= x116 <= +1
 +0 <= x117 <= +1
 +0 <= x118 <= +1
 +0 <= x119 <= +1
 +0 <= x120 <= +1
 +0 <= x121 <= +1
 +0 <= x122 <= +1
 +0 <= x123 <= +1
 +0 <= x124 <= +1
 +0 <= x125 <= +1
 +0 <= x126 <= +1
 +0 <= x127 <= +1
 +0 <= x128 <= +1
 +0 <= x129 <= +1
 +0 <= x130 <= +1
 +0 <= x131 <= +1
 +0 <= x132 <= +1
 +0 <= x133 <= +1
 +0 <= x134 <= +1
 +0 <= x135 <= +1
 +0 <= x136 <= +1
 +0 <= x137 <= +1
 +0 <= x138 <= +1
 +0 <= x139 <= +1
 +0 <= x140 <= +1
 +0 <= x141 <= +1
 +0 <= x142 <= +1
 +0 <= x143 <= +1
 +0 <= x144 <= +1
 +0 <= x145 <= +1
 +0 <= x146 <= +1
 +0 <= x147 <= +1
 +0 <= x148 <= +1
 +0 <= x149 <= +1
 +0 <= x150 <= +1
 +0 <= x151 <= +1
 +0 <= x152 <= +1
 +0 <= x153 <= +1
 +0 <= x154 <= +1
 +0 <= x155 <= +1
 +0 <= x156 <= +1
 +0 <= x157 <= +1
 +0 <= x158 <= +1
 +0 <= x159 <= +1
 +0 <= x160 <= +1
 +0 <= x161 <= +1
 +0 <= x162 <= +1
 +0 <= x163 <= +1
 +0 <= x164 <= +1
 +0 <= x165 <= +1
 +0 <= x166 <= +1
 +0 <= x167 <= +1
 +0 <= x168 <= +1
 +0 <= x169 <= +1
 +0 <= x170 <= +1
 +0 <= x171 <= +1
 +0 <= x172 <= +1
 +0 <= x173 <= +1
 +0 <= x174 <= +1
 +0 <= x175 <= +1
 +0 <= x176 <= +1
 +0 <= x177 <= +1
 +0 <= x178 <= +1
 +0 <= x179 <= +1
 +0 <= x180 <= +0
 +0 <= x181 <= +0
 +0 <= x182 <= +0
 +0 <= x183 <= +0
 +0 <= x184 <= +0
 +0 <= x185 <= +0
 +0 <= x186 <= +0
 +0 <= x187 <= +0
 +0 <= x188 <= +0
 +0 <= x189 <= +0
 +0 <= x190 <= +0
 +0 <= x191 <= +0
 +0 <= x192 <= +0
 +0 <= x193 <= +0
 +0 <= x194 <= +0
 +0 <= x195 <= +0
 +0 <= x196 <= +0
 +0 <= x197 <= +0
 +0 <= x198 <= +0
 +0 <= x199 <= +0
 +0 <= x200 <= +0
 +0 <= x201 <= +0
 +0 <= x202 <= +0
 +0 <= x203 <= +0
 +0 <= x204 <= +0
 +0 <= x205 <= +0
 +0 <= x206 <= +0
 +0 <= x207 <= +0
 +0 <= x208 <= +0
 +0 <= x209 <= +0
 +0 <= x210 <= +0
 +0 <= x211 <= +0
 +0 <= x212 <= +0
 +0 <= x213 <= +0
 +0 <= x214 <= +0
 +0 <= x215 <= +0
 +0 <= x216 <= +0
 +0 <= x217 <= +0
 +0 <= x218 <= +0
 +0 <= x219 <= +0
 +0 <= x220 <= +0
 +0 <= x221 <= +0
 +0 <= x222 <= +0
 +0 <= x223 <= +0
 +0 <= x224 <= +0
 +0 <= x225 <= +0
 +0 <= x226 <= +0
 +0 <= x227 <= +0
 +0 <= x228 <= +0
 +0 <= x229 <= +0
 +0 <= x230 <= +0
 +0 <= x231 <= +0
 +0 <= x232 <= +0
 +0 <= x233 <= +0
 +0 <= x234 <= +0
 +0 <= x235 <= +0
 +0 <= x236 <= +0
 +0 <= x237 <= +0
 +0 <= x238 <= +0
 +0 <= x239 <= +0
 +0 <= x240 <= +0
 +0 <= x241 <= +0
 +0 <= x242 <= +0
 +0 <= x243 <= +0
 +0 <= x244 <= +0
 +0 <= x245 <= +0
 +0 <= x246 <= +0
 +0 <= x247 <= +0
 +0 <= x248 <= +0
 +0 <= x249 <= +0
 +0 <= x250 <= +0
 +0 <= x251 <= +0
 +0 <= x252 <= +0
 +0 <= x253 <= +0
 +0 <= x254 <= +0
 +0 <= x255 <= +0
 +0 <= x256 <= +0
 +0 <= x257 <= +0
 +0 <= x258 <= +0
 +0 <= x259 <= +0
 +0 <= x260 <= +0
 +0 <= x261 <= +0
 +0 <= x262 <= +0
 +0 <= x263 <= +0
 +0 <= x264 <= +0
 +0 <= x265 <= +0
 +0 <= x266 <= +0
 +0 <= x267 <= +0
 +0 <= x268 <= +0
 +0 <= x269 <= +0
binary
general
semi
end
